
Gurobi 12.0.2 (mac64[arm]) logging started Sat Jun 14 00:46:57 2025

Set parameter LogFile to value "/Users/yurunfeng/Documents/GitHub/LRGTS-store-location/result/gurobi/snyder/88nodes/88-0.95-4.log"
Gurobi Optimizer version 12.0.2 build v12.0.2rc0 (mac64[arm] - Darwin 24.5.0 24F74)

CPU model: Apple M4
Thread count: 10 physical cores, 10 logical processors, using up to 10 threads

Non-default parameters:
TimeLimit  1200

Optimize a model with 728288 rows, 1378696 columns and 6524758 nonzeros
Model fingerprint: 0x2c9d5903
Variable types: 689304 continuous, 689392 integer (689392 binary)
Coefficient statistics:
  Matrix range     [5e-02, 1e+00]
  Objective range  [8e+00, 7e+06]
  Bounds range     [1e+00, 1e+00]
  RHS range        [1e+00, 4e+00]
Found heuristic solution: objective 4.484057e+07
Presolve removed 15664 rows and 7832 columns (presolve time = 5s)...
Presolve removed 15664 rows and 7832 columns (presolve time = 11s)...
Presolve removed 15664 rows and 7832 columns
Presolve time: 11.77s
Presolved: 712624 rows, 1370864 columns, 5831442 nonzeros
Variable types: 681472 continuous, 689392 integer (689392 binary)
Deterministic concurrent LP optimizer: primal simplex, dual simplex, and barrier
Showing barrier log only...

Root barrier log...

Ordering time: 1.70s

Barrier performed 0 iterations in 15.71 seconds (40.24 work units)
Barrier solve interrupted - model solved by another algorithm

Concurrent spin time: 1.08s (can be avoided by choosing Method=3)

Solved with dual simplex

Root simplex log...

Iteration    Objective       Primal Inf.    Dual Inf.      Time
    5311    1.3988624e+06   0.000000e+00   0.000000e+00     16s

Root relaxation: objective 1.398862e+06, 5311 iterations, 3.51 seconds (5.27 work units)

    Nodes    |    Current Node    |     Objective Bounds      |     Work
 Expl Unexpl |  Obj  Depth IntInf | Incumbent    BestBd   Gap | It/Node Time

     0     0 1398862.35    0 1545 4.4841e+07 1398862.35  96.9%     -   18s
H    0     0                    1715312.8023 1398862.35  18.4%     -   38s
H    0     0                    1627223.3770 1398862.35  14.0%     -   49s
     0     0 1415533.74    0 3605 1627223.38 1415533.74  13.0%     -  146s
     0     0 1415533.74    0 3605 1627223.38 1415533.74  13.0%     -  147s
H    0     0                    1541541.7912 1415533.74  8.17%     -  178s
H    0     0                    1521367.2288 1415533.74  6.96%     -  179s
H    0     0                    1521303.1896 1415533.74  6.95%     -  181s
H    0     0                    1520420.6891 1415533.74  6.90%     -  182s
H    0     0                    1520420.6870 1415533.74  6.90%     -  182s
H    0     0                    1520420.0833 1415533.74  6.90%     -  197s
H    0     0                    1520420.0112 1415533.74  6.90%     -  198s
H    0     0                    1520418.9675 1415533.74  6.90%     -  198s
H    0     0                    1520418.3067 1415533.74  6.90%     -  198s
H    0     0                    1520418.2169 1415533.74  6.90%     -  198s
H    0     0                    1520418.2108 1415533.74  6.90%     -  202s
     0     0 1415923.86    0 3099 1520418.21 1415923.86  6.87%     -  203s
     0     0 1415923.86    0 1725 1520418.21 1415923.86  6.87%     -  235s
     0     0 1429996.87    0 3709 1520418.21 1429996.87  5.95%     -  354s
     0     0 1429996.87    0 3711 1520418.21 1429996.87  5.95%     -  354s
H    0     0                    1495342.4475 1430000.44  4.37%     -  383s
H    0     0                    1493181.5343 1430000.44  4.23%     -  384s
H    0     0                    1493181.5315 1430000.44  4.23%     -  391s
     0     0 1433616.83    0 3575 1493181.53 1433616.83  3.99%     -  411s
     0     0 1433618.36    0 3576 1493181.53 1433618.36  3.99%     -  413s
     0     0 1433765.95    0 3583 1493181.53 1433765.95  3.98%     -  416s
     0     0 1445435.25    0 3942 1493181.53 1445435.25  3.20%     -  471s
     0     0 1445464.09    0 3924 1493181.53 1445464.09  3.20%     -  472s
     0     0 1445496.78    0 3931 1493181.53 1445496.78  3.19%     -  473s
     0     0 1445496.79    0 3927 1493181.53 1445496.79  3.19%     -  473s
H    0     0                    1488494.7255 1445516.40  2.89%     -  482s
     0     0 1446002.96    0 3992 1488494.73 1446002.96  2.85%     -  485s
     0     0 1446003.09    0 3980 1488494.73 1446003.09  2.85%     -  486s
     0     0 1446022.77    0 3977 1488494.73 1446022.77  2.85%     -  487s
     0     0 1455554.46    0 3687 1488494.73 1455554.46  2.21%     -  497s
     0     0 1455554.46    0 1916 1488494.73 1455554.46  2.21%     -  591s
     0     0 1456431.35    0 3867 1488494.73 1456431.35  2.15%     -  797s
H    0     0                    1488494.7216 1456431.88  2.15%     -  806s
H    0     0                    1488494.7177 1456431.88  2.15%     -  813s
H    0     0                    1488016.3581 1456431.88  2.12%     -  819s
H    0     0                    1487604.3828 1456431.88  2.10%     -  819s
H    0     0                    1486903.5158 1456431.88  2.05%     -  821s
H    0     0                    1486870.1040 1456431.88  2.05%     -  821s
H    0     0                    1486870.0856 1456431.88  2.05%     -  821s
H    0     0                    1486870.0820 1456431.88  2.05%     -  822s
     0     0 1459968.75    0 3964 1486870.08 1459968.75  1.81%     -  831s
     0     0 1459970.78    0 4083 1486870.08 1459970.78  1.81%     -  833s
     0     0 1459971.74    0 4009 1486870.08 1459971.74  1.81%     -  834s
     0     0 1460323.01    0 3996 1486870.08 1460323.01  1.79%     -  836s
     0     0 1460415.44    0 4020 1486870.08 1460415.44  1.78%     -  837s
     0     0 1460416.48    0 4023 1486870.08 1460416.48  1.78%     -  838s
     0     0 1465205.81    0 4227 1486870.08 1465205.81  1.46%     -  853s
     0     0 1465207.74    0 4227 1486870.08 1465207.74  1.46%     -  853s
     0     0 1466068.95    0 4453 1486870.08 1466068.95  1.40%     -  873s
     0     0 1466068.97    0 4452 1486870.08 1466068.97  1.40%     -  874s
     0     0 1466654.42    0 4462 1486870.08 1466654.42  1.36%     -  879s
     0     0 1466654.42    0 4457 1486870.08 1466654.42  1.36%     -  879s
     0     0 1466663.75    0 4487 1486870.08 1466663.75  1.36%     -  880s
     0     0 1466663.77    0 4484 1486870.08 1466663.77  1.36%     -  880s
     0     0 1468824.05    0 4675 1486870.08 1468824.05  1.21%     -  899s
     0     0 1468826.96    0 4511 1486870.08 1468826.96  1.21%     -  899s
     0     0 1469312.67    0 4622 1486870.08 1469312.67  1.18%     -  927s
     0     0 1469312.96    0 4671 1486870.08 1469312.96  1.18%     -  927s
     0     0 1469338.47    0 4810 1486870.08 1469338.47  1.18%     -  929s
     0     0 1469342.06    0 4927 1486870.08 1469342.06  1.18%     -  930s
     0     0 1470114.15    0 4364 1486870.08 1470114.15  1.13%     -  948s
     0     0 1470118.83    0 4452 1486870.08 1470118.83  1.13%     -  949s
     0     0 1470119.09    0 4312 1486870.08 1470119.09  1.13%     -  949s
     0     0 1470119.39    0 4304 1486870.08 1470119.39  1.13%     -  950s
     0     0 1470119.74    0 4312 1486870.08 1470119.74  1.13%     -  950s
     0     0 1470120.04    0 4392 1486870.08 1470120.04  1.13%     -  951s
     0     0 1470120.35    0 4304 1486870.08 1470120.35  1.13%     -  951s
     0     0 1470120.51    0 4300 1486870.08 1470120.51  1.13%     -  952s
     0     0 1470120.62    0 4300 1486870.08 1470120.62  1.13%     -  952s
     0     0 1470120.92    0 4301 1486870.08 1470120.92  1.13%     -  952s
     0     0 1470120.99    0 4300 1486870.08 1470120.99  1.13%     -  952s
H    0     0                    1486747.4218 1470121.34  1.12%     -  959s
     0     0 1470219.17    0 4361 1486747.42 1470219.17  1.11%     -  962s
     0     0 1470219.47    0 4353 1486747.42 1470219.47  1.11%     -  963s
     0     0 1470219.58    0 4354 1486747.42 1470219.58  1.11%     -  963s
     0     0 1470219.71    0 4352 1486747.42 1470219.71  1.11%     -  964s
     0     0 1470219.82    0 4347 1486747.42 1470219.82  1.11%     -  964s
     0     0 1470220.05    0 4347 1486747.42 1470220.05  1.11%     -  964s
     0     0 1470220.11    0 4345 1486747.42 1470220.11  1.11%     -  965s
     0     0 1470220.17    0 4347 1486747.42 1470220.17  1.11%     -  965s
     0     0 1470220.39    0 4347 1486747.42 1470220.39  1.11%     -  965s
     0     0 1470220.45    0 4347 1486747.42 1470220.45  1.11%     -  965s
     0     0 1470220.47    0 4347 1486747.42 1470220.47  1.11%     -  966s
     0     0 1470230.59    0 4295 1486747.42 1470230.59  1.11%     -  966s
     0     0 1470259.90    0 4346 1486747.42 1470259.90  1.11%     -  968s
     0     0 1470260.37    0 4345 1486747.42 1470260.37  1.11%     -  968s
     0     0 1470260.62    0 4333 1486747.42 1470260.62  1.11%     -  969s
     0     0 1470260.63    0 4335 1486747.42 1470260.63  1.11%     -  969s
     0     0 1470261.73    0 4330 1486747.42 1470261.73  1.11%     -  969s
     0     0 1470261.98    0 4332 1486747.42 1470261.98  1.11%     -  970s
     0     0 1470262.08    0 4337 1486747.42 1470262.08  1.11%     -  970s
     0     0 1470262.69    0 4309 1486747.42 1470262.69  1.11%     -  971s
     0     0 1470263.10    0 4311 1486747.42 1470263.10  1.11%     -  971s
     0     0 1470263.37    0 4309 1486747.42 1470263.37  1.11%     -  971s
     0     0 1470274.13    0 4312 1486747.42 1470274.13  1.11%     -  972s
     0     0 1470274.36    0 4312 1486747.42 1470274.36  1.11%     -  973s
     0     0 1470274.75    0 4312 1486747.42 1470274.75  1.11%     -  973s
     0     0 1470274.93    0 4310 1486747.42 1470274.93  1.11%     -  973s
     0     0 1470275.33    0 4311 1486747.42 1470275.33  1.11%     -  974s
     0     0 1470275.52    0 4315 1486747.42 1470275.52  1.11%     -  974s
     0     0 1470276.47    0 4361 1486747.42 1470276.47  1.11%     -  975s
     0     0 1470276.87    0 4409 1486747.42 1470276.87  1.11%     -  975s
     0     0 1470276.90    0 4319 1486747.42 1470276.90  1.11%     -  975s
     0     0 1470278.11    0 4324 1486747.42 1470278.11  1.11%     -  976s
     0     0 1470278.36    0 4316 1486747.42 1470278.36  1.11%     -  976s
     0     0 1470597.40    0 4568 1486747.42 1470597.40  1.09%     -  984s
     0     0 1470597.40    0 2071 1486747.42 1470597.40  1.09%     - 1083s
     0     0 1470597.40    0 2070 1486747.42 1470597.40  1.09%     - 1084s
     0     0 1470597.40    0 2070 1486747.42 1470597.40  1.09%     - 1084s
     0     0 1470597.40    0 3297 1486747.42 1470597.40  1.09%     - 1121s
     0     0 1470597.40    0 3303 1486747.42 1470597.40  1.09%     - 1122s
H    0     0                    1486734.1646 1470597.40  1.09%     - 1135s
H    0     0                    1486519.0557 1470597.40  1.07%     - 1136s
H    0     0                    1485057.2679 1470597.40  0.97%     - 1136s
     0     0 1470597.40    0 3666 1485057.27 1470597.40  0.97%     - 1144s
     0     0 1470597.40    0 3672 1485057.27 1470597.40  0.97%     - 1144s
     0     0 1470597.40    0 3850 1485057.27 1470597.40  0.97%     - 1151s
     0     0 1470597.40    0 3859 1485057.27 1470597.40  0.97%     - 1152s
     0     0 1470597.40    0 3859 1485057.27 1470597.40  0.97%     - 1152s
     0     0 1470786.37    0 3880 1485057.27 1470786.37  0.96%     - 1157s
     0     0 1470789.71    0 3899 1485057.27 1470789.71  0.96%     - 1158s
     0     0 1470875.05    0 3881 1485057.27 1470875.05  0.95%     - 1160s
     0     0 1470875.33    0 3820 1485057.27 1470875.33  0.95%     - 1160s
     0     0 1470938.99    0 3788 1485057.27 1470938.99  0.95%     - 1162s
     0     0 1470940.09    0 3784 1485057.27 1470940.09  0.95%     - 1162s
     0     0 1470942.00    0 3807 1485057.27 1470942.00  0.95%     - 1162s
     0     0 1470942.00    0 3815 1485057.27 1470942.00  0.95%     - 1163s
     0     0 1471313.12    0 4312 1485057.27 1471313.12  0.93%     - 1173s
     0     0 1471316.02    0 4209 1485057.27 1471316.02  0.93%     - 1174s
     0     0 1471316.07    0 4210 1485057.27 1471316.07  0.93%     - 1175s
     0     0 1471419.20    0 4266 1485057.27 1471419.20  0.92%     - 1189s
     0     0 1471419.95    0 4273 1485057.27 1471419.95  0.92%     - 1190s
     0     0 1471448.76    0 4188 1485057.27 1471448.76  0.92%     - 1191s
     0     0 1471448.78    0 4188 1485057.27 1471448.78  0.92%     - 1191s
     0     0 1471449.29    0 4191 1485057.27 1471449.29  0.92%     - 1191s
     0     0 1471449.29    0 4191 1485057.27 1471449.29  0.92%     - 1191s
     0     0 1471449.31    0 4192 1485057.27 1471449.31  0.92%     - 1191s
     0     0 1471723.92    0 4409 1485057.27 1471723.92  0.90%     - 1200s

Cutting planes:
  Gomory: 1
  Cover: 25
  Implied bound: 8
  MIR: 150
  StrongCG: 1
  Flow cover: 783
  Zero half: 25
  RLT: 42
  Relax-and-lift: 3
  BQP: 6

Explored 1 nodes (209843 simplex iterations) in 1200.10 seconds (1880.25 work units)
Thread count was 10 (of 10 available processors)

Solution count 10: 1.48506e+06 1.48506e+06 1.48652e+06 ... 1.48849e+06

Time limit reached
Best objective 1.485057267985e+06, best bound 1.471723922022e+06, gap 0.8978%
